letting initialStacks = [38, 27, 33, 28, 15, 39, 23, 1, 22, 9, 43, 48, 11, 21, 41, 2, 49, 29, 14, 36, 34, 17, 44, 42, 4, 10, 40, 6, 50, 25, 26, 13, 19, 45, 30, 24, 51, 32, 35, 47, 3, 18, 16, 37, 12, 8, 7, 20, 31, 5, 46]
